c WARNING: for repeatability, setting FPU to use double precision
d VARIABLES            202236       
d CONSTRAINTS          919410       
c ============================[ Problem Statistics ]=============================
c |                                                                             |
c |  Number of variables:        202236                                         |
c |  Number of clauses:          919410                                         |
c |  Parse time:                   0.16 s                                       |
c |                                                                             |
c ============================[ Search Statistics ]==============================
c | Conflicts |          ORIGINAL         |          LEARNT          | Progress |
c |           |    Vars  Clauses Literals |    Limit  Clauses Lit/Cl |          |
c ===============================================================================
c |       100 |  177061   847530  2049122 |   310761      100     15 | 12.448 % |
c |       250 |  177061   847530  2049122 |   341837      250     61 | 12.448 % |
c |       475 |  177061   847530  2049122 |   376020      475     80 | 12.448 % |
c |       812 |  177061   847530  2049122 |   413622      812     92 | 12.448 % |
c |      1318 |  177061   847530  2049122 |   454985     1318    104 | 12.448 % |
c |      2077 |  177061   847530  2049122 |   500483     2077    107 | 12.448 % |
c |      3216 |  177061   847530  2049122 |   550532     3216    132 | 12.448 % |
c |      4924 |  177061   847530  2049122 |   605585     4924    129 | 12.448 % |
c |      7486 |  177061   847530  2049122 |   666143     7486    141 | 12.448 % |
c |     11330 |  177061   847530  2049122 |   732758    11330    147 | 12.448 % |
c |     17096 |  177061   847530  2049122 |   806034    17096    147 | 12.448 % |
c |     25745 |  177061   847530  2049122 |   886637    25745    153 | 12.448 % |
c |     38719 |  177061   847530  2049122 |   975301    38719    162 | 12.448 % |
c |     58180 |  177061   847530  2049122 |  1072831    58180    154 | 12.448 % |
c |     87372 |  177061   847530  2049122 |  1180114    87372    164 | 12.448 % |
c |    131161 |  177061   847530  2049122 |  1298125   131161    187 | 12.448 % |
c |    196845 |  177061   847530  2049122 |  1427938   196845    173 | 12.448 % |
c |    295371 |  177061   847530  2049122 |  1570732   295371    167 | 12.448 % |
c |    443160 |  177061   847530  2049122 |  1727805   443160    162 | 12.448 % |
c |    664843 |  177061   847530  2049122 |  1900586   664843    168 | 12.448 % |
c |    997368 |  177061   847530  2049122 |  2090644   997368    183 | 12.448 % |
c |   1496156 |  177061   847530  2049122 |  2299709  1496156    201 | 12.448 % |
c ===============================================================================
c restarts              : 3913
c conflicts             : 1996972        (1113 /sec)
c decisions             : 5442383        (0.00 % random) (3034 /sec)
c propagations          : 2885441269     (1608793 /sec)
c conflict literals     : 394910758      (37.17 % deleted)
d RESTARTS             3913
d FAILURES             1996972      
d NODES                5442383      
d BACKTRACKS           5442383      
d PROPAGATIONS         2885441269   
d NOGOODSIZE           197.75 
d MEMORY               2555.00 
d TIME                 1793.54 

s UNKNOWN
